MO824-Atividade-6/model2-lin-mist_qbf020.lp
\ LP format - for model browsing. Use MPS format to capture full model detail.
Maximize
  5 w[0,0] + 9 w[0,1] - 3 w[0,2] - 5 w[0,3] - 4 w[0,4] - 6 w[0,5] - 4 w[0,6]
   + 10 w[0,7] + 2 w[0,8] + 8 w[0,9] - 6 w[0,10] - 2 w[0,11] + 4 w[0,12]
   + 4 w[0,13] - 9 w[0,14] - 9 w[0,15] - 2 w[0,16] - 4 w[0,17] + 5 w[0,18]
   - 2 w[0,19] + 0 w[1,0] - w[1,1] - 7 w[1,2] - 9 w[1,3] + 3 w[1,4]
   + 3 w[1,6] - 3 w[1,7] + 8 w[1,8] + 9 w[1,9] - 9 w[1,10] + w[1,11]
   + 2 w[1,12] - 7 w[1,13] + 5 w[1,14] - 3 w[1,15] - 9 w[1,16] + 2 w[1,17]
   + 2 w[1,18] - 2 w[1,19] + 0 w[2,0] + 0 w[2,1] + 7 w[2,2] + 9 w[2,4]
   - 10 w[2,5] - 6 w[2,6] - 4 w[2,7] + w[2,8] - 8 w[2,9] - 2 w[2,10]
   + 7 w[2,11] + 6 w[2,12] + 4 w[2,13] + 3 w[2,14] + 6 w[2,15] + 9 w[2,16]
   - 8 w[2,17] + 6 w[2,18] + 4 w[2,19] + 0 w[3,0] + 0 w[3,1] + 0 w[3,2]
   - w[3,4] - 7 w[3,5] + 9 w[3,6] - 10 w[3,7] + 3 w[3,8] - 4 w[3,9]
   - 3 w[3,10] + w[3,11] - 3 w[3,12] - 8 w[3,13] + 10 w[3,14] + 8 w[3,16]
   - 5 w[3,17] + 6 w[3,18] + 5 w[3,19] + 0 w[4,0] + 0 w[4,1] + 0 w[4,2]
   + 0 w[4,3] + 10 w[4,4] + 4 w[4,5] + 2 w[4,6] + 6 w[4,7] - w[4,8]
   + 9 w[4,9] - 9 w[4,10] + 9 w[4,11] - 4 w[4,12] + w[4,13] + 9 w[4,14]
   - 4 w[4,15] + 7 w[4,16] - 4 w[4,18] - 7 w[4,19] + 0 w[5,0] + 0 w[5,1]
   + 0 w[5,2] + 0 w[5,3] + 0 w[5,4] + 6 w[5,5] + 7 w[5,6] - 5 w[5,7]
   + 3 w[5,8] - 10 w[5,9] - 9 w[5,10] - w[5,11] + 4 w[5,12] - 3 w[5,13]
   - w[5,14] + 2 w[5,15] - 10 w[5,16] + 4 w[5,17] + 2 w[5,18] + 7 w[5,19]
   + 0 w[6,0] + 0 w[6,1] + 0 w[6,2] + 0 w[6,3] + 0 w[6,4] + 0 w[6,5]
   - 7 w[6,6] - 5 w[6,7] - 9 w[6,8] - 9 w[6,9] + 3 w[6,10] + 9 w[6,11]
   - w[6,12] + 9 w[6,13] + 2 w[6,14] - 4 w[6,15] - 5 w[6,16] - 6 w[6,17]
   + 10 w[6,18] - 2 w[6,19] + 0 w[7,0] + 0 w[7,1] + 0 w[7,2] + 0 w[7,3]
   + 0 w[7,4] + 0 w[7,5] + 0 w[7,6] - 9 w[7,7] - 8 w[7,8] + 3 w[7,10]
   - 6 w[7,11] - 3 w[7,12] + 2 w[7,13] + 5 w[7,14] + 2 w[7,15] + 9 w[7,16]
   + 8 w[7,17] - 8 w[7,18] - 5 w[7,19] + 0 w[8,0] + 0 w[8,1] + 0 w[8,2]
   + 0 w[8,3] + 0 w[8,4] + 0 w[8,5] + 0 w[8,6] + 0 w[8,7] - 8 w[8,8]
   + 7 w[8,9] - 9 w[8,10] - 8 w[8,11] - 3 w[8,12] - 2 w[8,13] + 4 w[8,14]
   + w[8,15] - w[8,16] + 8 w[8,17] - 3 w[8,19] + 0 w[9,0] + 0 w[9,1]
   + 0 w[9,2] + 0 w[9,3] + 0 w[9,4] + 0 w[9,5] + 0 w[9,6] + 0 w[9,7]
   + 0 w[9,8] + 2 w[9,9] - 4 w[9,11] - 2 w[9,12] + 4 w[9,13] + 2 w[9,14]
   - 7 w[9,15] + 6 w[9,16] + 4 w[9,17] + 8 w[9,18] + 10 w[9,19] + 0 w[10,0]
   + 0 w[10,1] + 0 w[10,2] + 0 w[10,3] + 0 w[10,4] + 0 w[10,5] + 0 w[10,6]
   + 0 w[10,7] + 0 w[10,8] + 0 w[10,9] - 8 w[10,10] + 8 w[10,11]
   + 6 w[10,12] - 5 w[10,13] + 4 w[10,14] + 4 w[10,15] + w[10,16]
   - 10 w[10,17] - 8 w[10,18] - 10 w[10,19] + 0 w[11,0] + 0 w[11,1]
   + 0 w[11,2] + 0 w[11,3] + 0 w[11,4] + 0 w[11,5] + 0 w[11,6] + 0 w[11,7]
   + 0 w[11,8] + 0 w[11,9] + 0 w[11,10] - 5 w[11,11] - 8 w[11,12]
   + 10 w[11,13] + w[11,14] + 10 w[11,15] + 9 w[11,16] - 3 w[11,17]
   - 7 w[11,18] + 8 w[11,19] + 0 w[12,0] + 0 w[12,1] + 0 w[12,2]
   + 0 w[12,3] + 0 w[12,4] + 0 w[12,5] + 0 w[12,6] + 0 w[12,7] + 0 w[12,8]
   + 0 w[12,9] + 0 w[12,10] + 0 w[12,11] + 6 w[12,12] + 10 w[12,13]
   + 9 w[12,14] - 9 w[12,15] - 10 w[12,17] + 5 w[12,18] - 5 w[12,19]
   + 0 w[13,0] + 0 w[13,1] + 0 w[13,2] + 0 w[13,3] + 0 w[13,4] + 0 w[13,5]
   + 0 w[13,6] + 0 w[13,7] + 0 w[13,8] + 0 w[13,9] + 0 w[13,10]
   + 0 w[13,11] + 0 w[13,12] - 5 w[13,13] + 10 w[13,15] + 3 w[13,16]
   - 5 w[13,17] - 2 w[13,18] + 5 w[13,19] + 0 w[14,0] + 0 w[14,1]
   + 0 w[14,2] + 0 w[14,3] + 0 w[14,4] + 0 w[14,5] + 0 w[14,6] + 0 w[14,7]
   + 0 w[14,8] + 0 w[14,9] + 0 w[14,10] + 0 w[14,11] + 0 w[14,12]
   + 0 w[14,13] + 7 w[14,14] + 4 w[14,15] + 3 w[14,16] - 3 w[14,17]
   - 7 w[14,18] - 7 w[14,19] + 0 w[15,0] + 0 w[15,1] + 0 w[15,2]
   + 0 w[15,3] + 0 w[15,4] + 0 w[15,5] + 0 w[15,6] + 0 w[15,7] + 0 w[15,8]
   + 0 w[15,9] + 0 w[15,10] + 0 w[15,11] + 0 w[15,12] + 0 w[15,13]
   + 0 w[15,14] + w[15,15] + 8 w[15,16] - 5 w[15,17] - 10 w[15,18]
   + 8 w[15,19] + 0 w[16,0] + 0 w[16,1] + 0 w[16,2] + 0 w[16,3] + 0 w[16,4]
   + 0 w[16,5] + 0 w[16,6] + 0 w[16,7] + 0 w[16,8] + 0 w[16,9] + 0 w[16,10]
   + 0 w[16,11] + 0 w[16,12] + 0 w[16,13] + 0 w[16,14] + 0 w[16,15]
   - 8 w[16,16] - 5 w[16,17] + 8 w[16,18] - 2 w[16,19] + 0 w[17,0]
   + 0 w[17,1] + 0 w[17,2] + 0 w[17,3] + 0 w[17,4] + 0 w[17,5] + 0 w[17,6]
   + 0 w[17,7] + 0 w[17,8] + 0 w[17,9] + 0 w[17,10] + 0 w[17,11]
   + 0 w[17,12] + 0 w[17,13] + 0 w[17,14] + 0 w[17,15] + 0 w[17,16]
   + 10 w[17,17] + 8 w[17,18] - w[17,19] + 0 w[18,0] + 0 w[18,1]
   + 0 w[18,2] + 0 w[18,3] + 0 w[18,4] + 0 w[18,5] + 0 w[18,6] + 0 w[18,7]
   + 0 w[18,8] + 0 w[18,9] + 0 w[18,10] + 0 w[18,11] + 0 w[18,12]
   + 0 w[18,13] + 0 w[18,14] + 0 w[18,15] + 0 w[18,16] + 0 w[18,17]
   - 4 w[18,18] - 7 w[18,19] + 0 w[19,0] + 0 w[19,1] + 0 w[19,2]
   + 0 w[19,3] + 0 w[19,4] + 0 w[19,5] + 0 w[19,6] + 0 w[19,7] + 0 w[19,8]
   + 0 w[19,9] + 0 w[19,10] + 0 w[19,11] + 0 w[19,12] + 0 w[19,13]
   + 0 w[19,14] + 0 w[19,15] + 0 w[19,16] + 0 w[19,17] + 0 w[19,18]
   - 10 w[19,19]
Subject To
 x_1,12,14: x[0] + x[11] + x[13] <= 2
 x_2,3,7: x[1] + x[2] + x[6] <= 2
 x_3,14,20: x[2] + x[13] + x[19] <= 2
 x_4,5,13: x[3] + x[4] + x[12] <= 2
 x_5,6,16: x[4] + x[5] + x[15] <= 2
 x_6,7,19: x[5] + x[6] + x[18] <= 2
 x_7,12,18: x[6] + x[11] + x[17] <= 2
 x_5,8,9: x[4] + x[7] + x[8] <= 2
 x_9,18,20: x[8] + x[17] + x[19] <= 2
 x_10,11,12: x[9] + x[10] + x[11] <= 2
 x_2,4,11: x[1] + x[3] + x[10] <= 2
 x_12,13,17: x[11] + x[12] + x[16] <= 2
 x_4,10,13: x[3] + x[9] + x[12] <= 2
 x_3,14,15: x[2] + x[13] + x[14] <= 2
 x_6,15,16: x[5] + x[14] + x[15] <= 2
 x_9,16,17: x[8] + x[15] + x[16] <= 2
 x_2,8,17: x[1] + x[7] + x[16] <= 2
 x_15,18,19: x[14] + x[17] + x[18] <= 2
 x_8,10,19: x[7] + x[9] + x[18] <= 2
 x_1,2,20: x[0] + x[1] + x[19] <= 2
 (i)w_0,0<=x_0: - x[0] + w[0,0] <= 0
 (j)w_0,0<=x_0: - x[0] + w[0,0] <= 0
 -w_0,0+x_0,0+x_0,0<=1: 2 x[0] - w[0,0] <= 1
 (i)w_0,1<=x_0: - x[0] + w[0,1] <= 0
 (j)w_0,1<=x_1: w[0,1] - x[1] <= 0
 -w_0,1+x_0,1+x_0,1<=1: x[0] - w[0,1] + x[1] <= 1
 (i)w_0,2<=x_0: - x[0] + w[0,2] <= 0
 (j)w_0,2<=x_2: w[0,2] - x[2] <= 0
 -w_0,2+x_0,2+x_0,2<=1: x[0] - w[0,2] + x[2] <= 1
 (i)w_0,3<=x_0: - x[0] + w[0,3] <= 0
 (j)w_0,3<=x_3: w[0,3] - x[3] <= 0
 -w_0,3+x_0,3+x_0,3<=1: x[0] - w[0,3] + x[3] <= 1
 (i)w_0,4<=x_0: - x[0] + w[0,4] <= 0
 (j)w_0,4<=x_4: w[0,4] - x[4] <= 0
 -w_0,4+x_0,4+x_0,4<=1: x[0] - w[0,4] + x[4] <= 1
 (i)w_0,5<=x_0: - x[0] + w[0,5] <= 0
 (j)w_0,5<=x_5: w[0,5] - x[5] <= 0
 -w_0,5+x_0,5+x_0,5<=1: x[0] - w[0,5] + x[5] <= 1
 (i)w_0,6<=x_0: - x[0] + w[0,6] <= 0
 (j)w_0,6<=x_6: w[0,6] - x[6] <= 0
 -w_0,6+x_0,6+x_0,6<=1: x[0] - w[0,6] + x[6] <= 1
 (i)w_0,7<=x_0: - x[0] + w[0,7] <= 0
 (j)w_0,7<=x_7: w[0,7] - x[7] <= 0
 -w_0,7+x_0,7+x_0,7<=1: x[0] - w[0,7] + x[7] <= 1
 (i)w_0,8<=x_0: - x[0] + w[0,8] <= 0
 (j)w_0,8<=x_8: w[0,8] - x[8] <= 0
 -w_0,8+x_0,8+x_0,8<=1: x[0] - w[0,8] + x[8] <= 1
 (i)w_0,9<=x_0: - x[0] + w[0,9] <= 0
 (j)w_0,9<=x_9: w[0,9] - x[9] <= 0
 -w_0,9+x_0,9+x_0,9<=1: x[0] - w[0,9] + x[9] <= 1
 (i)w_0,10<=x_0: - x[0] + w[0,10] <= 0
 (j)w_0,10<=x_10: w[0,10] - x[10] <= 0
 -w_0,10+x_0,10+x_0,10<=1: x[0] - w[0,10] + x[10] <= 1
 (i)w_0,11<=x_0: - x[0] + w[0,11] <= 0
 (j)w_0,11<=x_11: w[0,11] - x[11] <= 0
 -w_0,11+x_0,11+x_0,11<=1: x[0] - w[0,11] + x[11] <= 1
 (i)w_0,12<=x_0: - x[0] + w[0,12] <= 0
 (j)w_0,12<=x_12: w[0,12] - x[12] <= 0
 -w_0,12+x_0,12+x_0,12<=1: x[0] - w[0,12] + x[12] <= 1
 (i)w_0,13<=x_0: - x[0] + w[0,13] <= 0
 (j)w_0,13<=x_13: w[0,13] - x[13] <= 0
 -w_0,13+x_0,13+x_0,13<=1: x[0] - w[0,13] + x[13] <= 1
 (i)w_0,14<=x_0: - x[0] + w[0,14] <= 0
 (j)w_0,14<=x_14: w[0,14] - x[14] <= 0
 -w_0,14+x_0,14+x_0,14<=1: x[0] - w[0,14] + x[14] <= 1
 (i)w_0,15<=x_0: - x[0] + w[0,15] <= 0
 (j)w_0,15<=x_15: w[0,15] - x[15] <= 0
 -w_0,15+x_0,15+x_0,15<=1: x[0] - w[0,15] + x[15] <= 1
 (i)w_0,16<=x_0: - x[0] + w[0,16] <= 0
 (j)w_0,16<=x_16: w[0,16] - x[16] <= 0
 -w_0,16+x_0,16+x_0,16<=1: x[0] - w[0,16] + x[16] <= 1
 (i)w_0,17<=x_0: - x[0] + w[0,17] <= 0
 (j)w_0,17<=x_17: w[0,17] - x[17] <= 0
 -w_0,17+x_0,17+x_0,17<=1: x[0] - w[0,17] + x[17] <= 1
 (i)w_0,18<=x_0: - x[0] + w[0,18] <= 0
 (j)w_0,18<=x_18: w[0,18] - x[18] <= 0
 -w_0,18+x_0,18+x_0,18<=1: x[0] - w[0,18] + x[18] <= 1
 (i)w_0,19<=x_0: - x[0] + w[0,19] <= 0
 (j)w_0,19<=x_19: w[0,19] - x[19] <= 0
 -w_0,19+x_0,19+x_0,19<=1: x[0] - w[0,19] + x[19] <= 1
 (i)w_1,1<=x_1: - x[1] + w[1,1] <= 0
 (j)w_1,1<=x_1: - x[1] + w[1,1] <= 0
 -w_1,1+x_1,1+x_1,1<=1: 2 x[1] - w[1,1] <= 1
 (i)w_1,2<=x_1: - x[1] + w[1,2] <= 0
 (j)w_1,2<=x_2: w[1,2] - x[2] <= 0
 -w_1,2+x_1,2+x_1,2<=1: x[1] - w[1,2] + x[2] <= 1
 (i)w_1,3<=x_1: - x[1] + w[1,3] <= 0
 (j)w_1,3<=x_3: w[1,3] - x[3] <= 0
 -w_1,3+x_1,3+x_1,3<=1: x[1] - w[1,3] + x[3] <= 1
 (i)w_1,4<=x_1: - x[1] + w[1,4] <= 0
 (j)w_1,4<=x_4: w[1,4] - x[4] <= 0
 -w_1,4+x_1,4+x_1,4<=1: x[1] - w[1,4] + x[4] <= 1
 (i)w_1,5<=x_1: - x[1] + w[1,5] <= 0
 (j)w_1,5<=x_5: w[1,5] - x[5] <= 0
 -w_1,5+x_1,5+x_1,5<=1: x[1] - w[1,5] + x[5] <= 1
 (i)w_1,6<=x_1: - x[1] + w[1,6] <= 0
 (j)w_1,6<=x_6: w[1,6] - x[6] <= 0
 -w_1,6+x_1,6+x_1,6<=1: x[1] - w[1,6] + x[6] <= 1
 (i)w_1,7<=x_1: - x[1] + w[1,7] <= 0
 (j)w_1,7<=x_7: w[1,7] - x[7] <= 0
 -w_1,7+x_1,7+x_1,7<=1: x[1] - w[1,7] + x[7] <= 1
 (i)w_1,8<=x_1: - x[1] + w[1,8] <= 0
 (j)w_1,8<=x_8: w[1,8] - x[8] <= 0
 -w_1,8+x_1,8+x_1,8<=1: x[1] - w[1,8] + x[8] <= 1
 (i)w_1,9<=x_1: - x[1] + w[1,9] <= 0
 (j)w_1,9<=x_9: w[1,9] - x[9] <= 0
 -w_1,9+x_1,9+x_1,9<=1: x[1] - w[1,9] + x[9] <= 1
 (i)w_1,10<=x_1: - x[1] + w[1,10] <= 0
 (j)w_1,10<=x_10: w[1,10] - x[10] <= 0
 -w_1,10+x_1,10+x_1,10<=1: x[1] - w[1,10] + x[10] <= 1
 (i)w_1,11<=x_1: - x[1] + w[1,11] <= 0
 (j)w_1,11<=x_11: w[1,11] - x[11] <= 0
 -w_1,11+x_1,11+x_1,11<=1: x[1] - w[1,11] + x[11] <= 1
 (i)w_1,12<=x_1: - x[1] + w[1,12] <= 0
 (j)w_1,12<=x_12: w[1,12] - x[12] <= 0
 -w_1,12+x_1,12+x_1,12<=1: x[1] - w[1,12] + x[12] <= 1
 (i)w_1,13<=x_1: - x[1] + w[1,13] <= 0
 (j)w_1,13<=x_13: w[1,13] - x[13] <= 0
 -w_1,13+x_1,13+x_1,13<=1: x[1] - w[1,13] + x[13] <= 1
 (i)w_1,14<=x_1: - x[1] + w[1,14] <= 0
 (j)w_1,14<=x_14: w[1,14] - x[14] <= 0
 -w_1,14+x_1,14+x_1,14<=1: x[1] - w[1,14] + x[14] <= 1
 (i)w_1,15<=x_1: - x[1] + w[1,15] <= 0
 (j)w_1,15<=x_15: w[1,15] - x[15] <= 0
 -w_1,15+x_1,15+x_1,15<=1: x[1] - w[1,15] + x[15] <= 1
 (i)w_1,16<=x_1: - x[1] + w[1,16] <= 0
 (j)w_1,16<=x_16: w[1,16] - x[16] <= 0
 -w_1,16+x_1,16+x_1,16<=1: x[1] - w[1,16] + x[16] <= 1
 (i)w_1,17<=x_1: - x[1] + w[1,17] <= 0
 (j)w_1,17<=x_17: w[1,17] - x[17] <= 0
 -w_1,17+x_1,17+x_1,17<=1: x[1] - w[1,17] + x[17] <= 1
 (i)w_1,18<=x_1: - x[1] + w[1,18] <= 0
 (j)w_1,18<=x_18: w[1,18] - x[18] <= 0
 -w_1,18+x_1,18+x_1,18<=1: x[1] - w[1,18] + x[18] <= 1
 (i)w_1,19<=x_1: - x[1] + w[1,19] <= 0
 (j)w_1,19<=x_19: w[1,19] - x[19] <= 0
 -w_1,19+x_1,19+x_1,19<=1: x[1] - w[1,19] + x[19] <= 1
 (i)w_2,2<=x_2: - x[2] + w[2,2] <= 0
 (j)w_2,2<=x_2: - x[2] + w[2,2] <= 0
 -w_2,2+x_2,2+x_2,2<=1: 2 x[2] - w[2,2] <= 1
 (i)w_2,3<=x_2: - x[2] + w[2,3] <= 0
 (j)w_2,3<=x_3: w[2,3] - x[3] <= 0
 -w_2,3+x_2,3+x_2,3<=1: x[2] - w[2,3] + x[3] <= 1
 (i)w_2,4<=x_2: - x[2] + w[2,4] <= 0
 (j)w_2,4<=x_4: w[2,4] - x[4] <= 0
 -w_2,4+x_2,4+x_2,4<=1: x[2] - w[2,4] + x[4] <= 1
 (i)w_2,5<=x_2: - x[2] + w[2,5] <= 0
 (j)w_2,5<=x_5: w[2,5] - x[5] <= 0
 -w_2,5+x_2,5+x_2,5<=1: x[2] - w[2,5] + x[5] <= 1
 (i)w_2,6<=x_2: - x[2] + w[2,6] <= 0
 (j)w_2,6<=x_6: w[2,6] - x[6] <= 0
 -w_2,6+x_2,6+x_2,6<=1: x[2] - w[2,6] + x[6] <= 1
 (i)w_2,7<=x_2: - x[2] + w[2,7] <= 0
 (j)w_2,7<=x_7: w[2,7] - x[7] <= 0
 -w_2,7+x_2,7+x_2,7<=1: x[2] - w[2,7] + x[7] <= 1
 (i)w_2,8<=x_2: - x[2] + w[2,8] <= 0
 (j)w_2,8<=x_8: w[2,8] - x[8] <= 0
 -w_2,8+x_2,8+x_2,8<=1: x[2] - w[2,8] + x[8] <= 1
 (i)w_2,9<=x_2: - x[2] + w[2,9] <= 0
 (j)w_2,9<=x_9: w[2,9] - x[9] <= 0
 -w_2,9+x_2,9+x_2,9<=1: x[2] - w[2,9] + x[9] <= 1
 (i)w_2,10<=x_2: - x[2] + w[2,10] <= 0
 (j)w_2,10<=x_10: w[2,10] - x[10] <= 0
 -w_2,10+x_2,10+x_2,10<=1: x[2] - w[2,10] + x[10] <= 1
 (i)w_2,11<=x_2: - x[2] + w[2,11] <= 0
 (j)w_2,11<=x_11: w[2,11] - x[11] <= 0
 -w_2,11+x_2,11+x_2,11<=1: x[2] - w[2,11] + x[11] <= 1
 (i)w_2,12<=x_2: - x[2] + w[2,12] <= 0
 (j)w_2,12<=x_12: w[2,12] - x[12] <= 0
 -w_2,12+x_2,12+x_2,12<=1: x[2] - w[2,12] + x[12] <= 1
 (i)w_2,13<=x_2: - x[2] + w[2,13] <= 0
 (j)w_2,13<=x_13: w[2,13] - x[13] <= 0
 -w_2,13+x_2,13+x_2,13<=1: x[2] - w[2,13] + x[13] <= 1
 (i)w_2,14<=x_2: - x[2] + w[2,14] <= 0
 (j)w_2,14<=x_14: w[2,14] - x[14] <= 0
 -w_2,14+x_2,14+x_2,14<=1: x[2] - w[2,14] + x[14] <= 1
 (i)w_2,15<=x_2: - x[2] + w[2,15] <= 0
 (j)w_2,15<=x_15: w[2,15] - x[15] <= 0
 -w_2,15+x_2,15+x_2,15<=1: x[2] - w[2,15] + x[15] <= 1
 (i)w_2,16<=x_2: - x[2] + w[2,16] <= 0
 (j)w_2,16<=x_16: w[2,16] - x[16] <= 0
 -w_2,16+x_2,16+x_2,16<=1: x[2] - w[2,16] + x[16] <= 1
 (i)w_2,17<=x_2: - x[2] + w[2,17] <= 0
 (j)w_2,17<=x_17: w[2,17] - x[17] <= 0
 -w_2,17+x_2,17+x_2,17<=1: x[2] - w[2,17] + x[17] <= 1
 (i)w_2,18<=x_2: - x[2] + w[2,18] <= 0
 (j)w_2,18<=x_18: w[2,18] - x[18] <= 0
 -w_2,18+x_2,18+x_2,18<=1: x[2] - w[2,18] + x[18] <= 1
 (i)w_2,19<=x_2: - x[2] + w[2,19] <= 0
 (j)w_2,19<=x_19: w[2,19] - x[19] <= 0
 -w_2,19+x_2,19+x_2,19<=1: x[2] - w[2,19] + x[19] <= 1
 (i)w_3,3<=x_3: - x[3] + w[3,3] <= 0
 (j)w_3,3<=x_3: - x[3] + w[3,3] <= 0
 -w_3,3+x_3,3+x_3,3<=1: 2 x[3] - w[3,3] <= 1
 (i)w_3,4<=x_3: - x[3] + w[3,4] <= 0
 (j)w_3,4<=x_4: w[3,4] - x[4] <= 0
 -w_3,4+x_3,4+x_3,4<=1: x[3] - w[3,4] + x[4] <= 1
 (i)w_3,5<=x_3: - x[3] + w[3,5] <= 0
 (j)w_3,5<=x_5: w[3,5] - x[5] <= 0
 -w_3,5+x_3,5+x_3,5<=1: x[3] - w[3,5] + x[5] <= 1
 (i)w_3,6<=x_3: - x[3] + w[3,6] <= 0
 (j)w_3,6<=x_6: w[3,6] - x[6] <= 0
 -w_3,6+x_3,6+x_3,6<=1: x[3] - w[3,6] + x[6] <= 1
 (i)w_3,7<=x_3: - x[3] + w[3,7] <= 0
 (j)w_3,7<=x_7: w[3,7] - x[7] <= 0
 -w_3,7+x_3,7+x_3,7<=1: x[3] - w[3,7] + x[7] <= 1
 (i)w_3,8<=x_3: - x[3] + w[3,8] <= 0
 (j)w_3,8<=x_8: w[3,8] - x[8] <= 0
 -w_3,8+x_3,8+x_3,8<=1: x[3] - w[3,8] + x[8] <= 1
 (i)w_3,9<=x_3: - x[3] + w[3,9] <= 0
 (j)w_3,9<=x_9: w[3,9] - x[9] <= 0
 -w_3,9+x_3,9+x_3,9<=1: x[3] - w[3,9] + x[9] <= 1
 (i)w_3,10<=x_3: - x[3] + w[3,10] <= 0
 (j)w_3,10<=x_10: w[3,10] - x[10] <= 0
 -w_3,10+x_3,10+x_3,10<=1: x[3] - w[3,10] + x[10] <= 1
 (i)w_3,11<=x_3: - x[3] + w[3,11] <= 0
 (j)w_3,11<=x_11: w[3,11] - x[11] <= 0
 -w_3,11+x_3,11+x_3,11<=1: x[3] - w[3,11] + x[11] <= 1
 (i)w_3,12<=x_3: - x[3] + w[3,12] <= 0
 (j)w_3,12<=x_12: w[3,12] - x[12] <= 0
 -w_3,12+x_3,12+x_3,12<=1: x[3] - w[3,12] + x[12] <= 1
 (i)w_3,13<=x_3: - x[3] + w[3,13] <= 0
 (j)w_3,13<=x_13: w[3,13] - x[13] <= 0
 -w_3,13+x_3,13+x_3,13<=1: x[3] - w[3,13] + x[13] <= 1
 (i)w_3,14<=x_3: - x[3] + w[3,14] <= 0
 (j)w_3,14<=x_14: w[3,14] - x[14] <= 0
 -w_3,14+x_3,14+x_3,14<=1: x[3] - w[3,14] + x[14] <= 1
 (i)w_3,15<=x_3: - x[3] + w[3,15] <= 0
 (j)w_3,15<=x_15: w[3,15] - x[15] <= 0
 -w_3,15+x_3,15+x_3,15<=1: x[3] - w[3,15] + x[15] <= 1
 (i)w_3,16<=x_3: - x[3] + w[3,16] <= 0
 (j)w_3,16<=x_16: w[3,16] - x[16] <= 0
 -w_3,16+x_3,16+x_3,16<=1: x[3] - w[3,16] + x[16] <= 1
 (i)w_3,17<=x_3: - x[3] + w[3,17] <= 0
 (j)w_3,17<=x_17: w[3,17] - x[17] <= 0
 -w_3,17+x_3,17+x_3,17<=1: x[3] - w[3,17] + x[17] <= 1
 (i)w_3,18<=x_3: - x[3] + w[3,18] <= 0
 (j)w_3,18<=x_18: w[3,18] - x[18] <= 0
 -w_3,18+x_3,18+x_3,18<=1: x[3] - w[3,18] + x[18] <= 1
 (i)w_3,19<=x_3: - x[3] + w[3,19] <= 0
 (j)w_3,19<=x_19: w[3,19] - x[19] <= 0
 -w_3,19+x_3,19+x_3,19<=1: x[3] - w[3,19] + x[19] <= 1
 (i)w_4,4<=x_4: - x[4] + w[4,4] <= 0
 (j)w_4,4<=x_4: - x[4] + w[4,4] <= 0
 -w_4,4+x_4,4+x_4,4<=1: 2 x[4] - w[4,4] <= 1
 (i)w_4,5<=x_4: - x[4] + w[4,5] <= 0
 (j)w_4,5<=x_5: w[4,5] - x[5] <= 0
 -w_4,5+x_4,5+x_4,5<=1: x[4] - w[4,5] + x[5] <= 1
 (i)w_4,6<=x_4: - x[4] + w[4,6] <= 0
 (j)w_4,6<=x_6: w[4,6] - x[6] <= 0
 -w_4,6+x_4,6+x_4,6<=1: x[4] - w[4,6] + x[6] <= 1
 (i)w_4,7<=x_4: - x[4] + w[4,7] <= 0
 (j)w_4,7<=x_7: w[4,7] - x[7] <= 0
 -w_4,7+x_4,7+x_4,7<=1: x[4] - w[4,7] + x[7] <= 1
 (i)w_4,8<=x_4: - x[4] + w[4,8] <= 0
 (j)w_4,8<=x_8: w[4,8] - x[8] <= 0
 -w_4,8+x_4,8+x_4,8<=1: x[4] - w[4,8] + x[8] <= 1
 (i)w_4,9<=x_4: - x[4] + w[4,9] <= 0
 (j)w_4,9<=x_9: w[4,9] - x[9] <= 0
 -w_4,9+x_4,9+x_4,9<=1: x[4] - w[4,9] + x[9] <= 1
 (i)w_4,10<=x_4: - x[4] + w[4,10] <= 0
 (j)w_4,10<=x_10: w[4,10] - x[10] <= 0
 -w_4,10+x_4,10+x_4,10<=1: x[4] - w[4,10] + x[10] <= 1
 (i)w_4,11<=x_4: - x[4] + w[4,11] <= 0
 (j)w_4,11<=x_11: w[4,11] - x[11] <= 0
 -w_4,11+x_4,11+x_4,11<=1: x[4] - w[4,11] + x[11] <= 1
 (i)w_4,12<=x_4: - x[4] + w[4,12] <= 0
 (j)w_4,12<=x_12: w[4,12] - x[12] <= 0
 -w_4,12+x_4,12+x_4,12<=1: x[4] - w[4,12] + x[12] <= 1
 (i)w_4,13<=x_4: - x[4] + w[4,13] <= 0
 (j)w_4,13<=x_13: w[4,13] - x[13] <= 0
 -w_4,13+x_4,13+x_4,13<=1: x[4] - w[4,13] + x[13] <= 1
 (i)w_4,14<=x_4: - x[4] + w[4,14] <= 0
 (j)w_4,14<=x_14: w[4,14] - x[14] <= 0
 -w_4,14+x_4,14+x_4,14<=1: x[4] - w[4,14] + x[14] <= 1
 (i)w_4,15<=x_4: - x[4] + w[4,15] <= 0
 (j)w_4,15<=x_15: w[4,15] - x[15] <= 0
 -w_4,15+x_4,15+x_4,15<=1: x[4] - w[4,15] + x[15] <= 1
 (i)w_4,16<=x_4: - x[4] + w[4,16] <= 0
 (j)w_4,16<=x_16: w[4,16] - x[16] <= 0
 -w_4,16+x_4,16+x_4,16<=1: x[4] - w[4,16] + x[16] <= 1
 (i)w_4,17<=x_4: - x[4] + w[4,17] <= 0
 (j)w_4,17<=x_17: w[4,17] - x[17] <= 0
 -w_4,17+x_4,17+x_4,17<=1: x[4] - w[4,17] + x[17] <= 1
 (i)w_4,18<=x_4: - x[4] + w[4,18] <= 0
 (j)w_4,18<=x_18: w[4,18] - x[18] <= 0
 -w_4,18+x_4,18+x_4,18<=1: x[4] - w[4,18] + x[18] <= 1
 (i)w_4,19<=x_4: - x[4] + w[4,19] <= 0
 (j)w_4,19<=x_19: w[4,19] - x[19] <= 0
 -w_4,19+x_4,19+x_4,19<=1: x[4] - w[4,19] + x[19] <= 1
 (i)w_5,5<=x_5: - x[5] + w[5,5] <= 0
 (j)w_5,5<=x_5: - x[5] + w[5,5] <= 0
 -w_5,5+x_5,5+x_5,5<=1: 2 x[5] - w[5,5] <= 1
 (i)w_5,6<=x_5: - x[5] + w[5,6] <= 0
 (j)w_5,6<=x_6: w[5,6] - x[6] <= 0
 -w_5,6+x_5,6+x_5,6<=1: x[5] - w[5,6] + x[6] <= 1
 (i)w_5,7<=x_5: - x[5] + w[5,7] <= 0
 (j)w_5,7<=x_7: w[5,7] - x[7] <= 0
 -w_5,7+x_5,7+x_5,7<=1: x[5] - w[5,7] + x[7] <= 1
 (i)w_5,8<=x_5: - x[5] + w[5,8] <= 0
 (j)w_5,8<=x_8: w[5,8] - x[8] <= 0
 -w_5,8+x_5,8+x_5,8<=1: x[5] - w[5,8] + x[8] <= 1
 (i)w_5,9<=x_5: - x[5] + w[5,9] <= 0
 (j)w_5,9<=x_9: w[5,9] - x[9] <= 0
 -w_5,9+x_5,9+x_5,9<=1: x[5] - w[5,9] + x[9] <= 1
 (i)w_5,10<=x_5: - x[5] + w[5,10] <= 0
 (j)w_5,10<=x_10: w[5,10] - x[10] <= 0
 -w_5,10+x_5,10+x_5,10<=1: x[5] - w[5,10] + x[10] <= 1
 (i)w_5,11<=x_5: - x[5] + w[5,11] <= 0
 (j)w_5,11<=x_11: w[5,11] - x[11] <= 0
 -w_5,11+x_5,11+x_5,11<=1: x[5] - w[5,11] + x[11] <= 1
 (i)w_5,12<=x_5: - x[5] + w[5,12] <= 0
 (j)w_5,12<=x_12: w[5,12] - x[12] <= 0
 -w_5,12+x_5,12+x_5,12<=1: x[5] - w[5,12] + x[12] <= 1
 (i)w_5,13<=x_5: - x[5] + w[5,13] <= 0
 (j)w_5,13<=x_13: w[5,13] - x[13] <= 0
 -w_5,13+x_5,13+x_5,13<=1: x[5] - w[5,13] + x[13] <= 1
 (i)w_5,14<=x_5: - x[5] + w[5,14] <= 0
 (j)w_5,14<=x_14: w[5,14] - x[14] <= 0
 -w_5,14+x_5,14+x_5,14<=1: x[5] - w[5,14] + x[14] <= 1
 (i)w_5,15<=x_5: - x[5] + w[5,15] <= 0
 (j)w_5,15<=x_15: w[5,15] - x[15] <= 0
 -w_5,15+x_5,15+x_5,15<=1: x[5] - w[5,15] + x[15] <= 1
 (i)w_5,16<=x_5: - x[5] + w[5,16] <= 0
 (j)w_5,16<=x_16: w[5,16] - x[16] <= 0
 -w_5,16+x_5,16+x_5,16<=1: x[5] - w[5,16] + x[16] <= 1
 (i)w_5,17<=x_5: - x[5] + w[5,17] <= 0
 (j)w_5,17<=x_17: w[5,17] - x[17] <= 0
 -w_5,17+x_5,17+x_5,17<=1: x[5] - w[5,17] + x[17] <= 1
 (i)w_5,18<=x_5: - x[5] + w[5,18] <= 0
 (j)w_5,18<=x_18: w[5,18] - x[18] <= 0
 -w_5,18+x_5,18+x_5,18<=1: x[5] - w[5,18] + x[18] <= 1
 (i)w_5,19<=x_5: - x[5] + w[5,19] <= 0
 (j)w_5,19<=x_19: w[5,19] - x[19] <= 0
 -w_5,19+x_5,19+x_5,19<=1: x[5] - w[5,19] + x[19] <= 1
 (i)w_6,6<=x_6: - x[6] + w[6,6] <= 0
 (j)w_6,6<=x_6: - x[6] + w[6,6] <= 0
 -w_6,6+x_6,6+x_6,6<=1: 2 x[6] - w[6,6] <= 1
 (i)w_6,7<=x_6: - x[6] + w[6,7] <= 0
 (j)w_6,7<=x_7: w[6,7] - x[7] <= 0
 -w_6,7+x_6,7+x_6,7<=1: x[6] - w[6,7] + x[7] <= 1
 (i)w_6,8<=x_6: - x[6] + w[6,8] <= 0
 (j)w_6,8<=x_8: w[6,8] - x[8] <= 0
 -w_6,8+x_6,8+x_6,8<=1: x[6] - w[6,8] + x[8] <= 1
 (i)w_6,9<=x_6: - x[6] + w[6,9] <= 0
 (j)w_6,9<=x_9: w[6,9] - x[9] <= 0
 -w_6,9+x_6,9+x_6,9<=1: x[6] - w[6,9] + x[9] <= 1
 (i)w_6,10<=x_6: - x[6] + w[6,10] <= 0
 (j)w_6,10<=x_10: w[6,10] - x[10] <= 0
 -w_6,10+x_6,10+x_6,10<=1: x[6] - w[6,10] + x[10] <= 1
 (i)w_6,11<=x_6: - x[6] + w[6,11] <= 0
 (j)w_6,11<=x_11: w[6,11] - x[11] <= 0
 -w_6,11+x_6,11+x_6,11<=1: x[6] - w[6,11] + x[11] <= 1
 (i)w_6,12<=x_6: - x[6] + w[6,12] <= 0
 (j)w_6,12<=x_12: w[6,12] - x[12] <= 0
 -w_6,12+x_6,12+x_6,12<=1: x[6] - w[6,12] + x[12] <= 1
 (i)w_6,13<=x_6: - x[6] + w[6,13] <= 0
 (j)w_6,13<=x_13: w[6,13] - x[13] <= 0
 -w_6,13+x_6,13+x_6,13<=1: x[6] - w[6,13] + x[13] <= 1
 (i)w_6,14<=x_6: - x[6] + w[6,14] <= 0
 (j)w_6,14<=x_14: w[6,14] - x[14] <= 0
 -w_6,14+x_6,14+x_6,14<=1: x[6] - w[6,14] + x[14] <= 1
 (i)w_6,15<=x_6: - x[6] + w[6,15] <= 0
 (j)w_6,15<=x_15: w[6,15] - x[15] <= 0
 -w_6,15+x_6,15+x_6,15<=1: x[6] - w[6,15] + x[15] <= 1
 (i)w_6,16<=x_6: - x[6] + w[6,16] <= 0
 (j)w_6,16<=x_16: w[6,16] - x[16] <= 0
 -w_6,16+x_6,16+x_6,16<=1: x[6] - w[6,16] + x[16] <= 1
 (i)w_6,17<=x_6: - x[6] + w[6,17] <= 0
 (j)w_6,17<=x_17: w[6,17] - x[17] <= 0
 -w_6,17+x_6,17+x_6,17<=1: x[6] - w[6,17] + x[17] <= 1
 (i)w_6,18<=x_6: - x[6] + w[6,18] <= 0
 (j)w_6,18<=x_18: w[6,18] - x[18] <= 0
 -w_6,18+x_6,18+x_6,18<=1: x[6] - w[6,18] + x[18] <= 1
 (i)w_6,19<=x_6: - x[6] + w[6,19] <= 0
 (j)w_6,19<=x_19: w[6,19] - x[19] <= 0
 -w_6,19+x_6,19+x_6,19<=1: x[6] - w[6,19] + x[19] <= 1
 (i)w_7,7<=x_7: - x[7] + w[7,7] <= 0
 (j)w_7,7<=x_7: - x[7] + w[7,7] <= 0
 -w_7,7+x_7,7+x_7,7<=1: 2 x[7] - w[7,7] <= 1
 (i)w_7,8<=x_7: - x[7] + w[7,8] <= 0
 (j)w_7,8<=x_8: w[7,8] - x[8] <= 0
 -w_7,8+x_7,8+x_7,8<=1: x[7] - w[7,8] + x[8] <= 1
 (i)w_7,9<=x_7: - x[7] + w[7,9] <= 0
 (j)w_7,9<=x_9: w[7,9] - x[9] <= 0
 -w_7,9+x_7,9+x_7,9<=1: x[7] - w[7,9] + x[9] <= 1
 (i)w_7,10<=x_7: - x[7] + w[7,10] <= 0
 (j)w_7,10<=x_10: w[7,10] - x[10] <= 0
 -w_7,10+x_7,10+x_7,10<=1: x[7] - w[7,10] + x[10] <= 1
 (i)w_7,11<=x_7: - x[7] + w[7,11] <= 0
 (j)w_7,11<=x_11: w[7,11] - x[11] <= 0
 -w_7,11+x_7,11+x_7,11<=1: x[7] - w[7,11] + x[11] <= 1
 (i)w_7,12<=x_7: - x[7] + w[7,12] <= 0
 (j)w_7,12<=x_12: w[7,12] - x[12] <= 0
 -w_7,12+x_7,12+x_7,12<=1: x[7] - w[7,12] + x[12] <= 1
 (i)w_7,13<=x_7: - x[7] + w[7,13] <= 0
 (j)w_7,13<=x_13: w[7,13] - x[13] <= 0
 -w_7,13+x_7,13+x_7,13<=1: x[7] - w[7,13] + x[13] <= 1
 (i)w_7,14<=x_7: - x[7] + w[7,14] <= 0
 (j)w_7,14<=x_14: w[7,14] - x[14] <= 0
 -w_7,14+x_7,14+x_7,14<=1: x[7] - w[7,14] + x[14] <= 1
 (i)w_7,15<=x_7: - x[7] + w[7,15] <= 0
 (j)w_7,15<=x_15: w[7,15] - x[15] <= 0
 -w_7,15+x_7,15+x_7,15<=1: x[7] - w[7,15] + x[15] <= 1
 (i)w_7,16<=x_7: - x[7] + w[7,16] <= 0
 (j)w_7,16<=x_16: w[7,16] - x[16] <= 0
 -w_7,16+x_7,16+x_7,16<=1: x[7] - w[7,16] + x[16] <= 1
 (i)w_7,17<=x_7: - x[7] + w[7,17] <= 0
 (j)w_7,17<=x_17: w[7,17] - x[17] <= 0
 -w_7,17+x_7,17+x_7,17<=1: x[7] - w[7,17] + x[17] <= 1
 (i)w_7,18<=x_7: - x[7] + w[7,18] <= 0
 (j)w_7,18<=x_18: w[7,18] - x[18] <= 0
 -w_7,18+x_7,18+x_7,18<=1: x[7] - w[7,18] + x[18] <= 1
 (i)w_7,19<=x_7: - x[7] + w[7,19] <= 0
 (j)w_7,19<=x_19: w[7,19] - x[19] <= 0
 -w_7,19+x_7,19+x_7,19<=1: x[7] - w[7,19] + x[19] <= 1
 (i)w_8,8<=x_8: - x[8] + w[8,8] <= 0
 (j)w_8,8<=x_8: - x[8] + w[8,8] <= 0
 -w_8,8+x_8,8+x_8,8<=1: 2 x[8] - w[8,8] <= 1
 (i)w_8,9<=x_8: - x[8] + w[8,9] <= 0
 (j)w_8,9<=x_9: w[8,9] - x[9] <= 0
 -w_8,9+x_8,9+x_8,9<=1: x[8] - w[8,9] + x[9] <= 1
 (i)w_8,10<=x_8: - x[8] + w[8,10] <= 0
 (j)w_8,10<=x_10: w[8,10] - x[10] <= 0
 -w_8,10+x_8,10+x_8,10<=1: x[8] - w[8,10] + x[10] <= 1
 (i)w_8,11<=x_8: - x[8] + w[8,11] <= 0
 (j)w_8,11<=x_11: w[8,11] - x[11] <= 0
 -w_8,11+x_8,11+x_8,11<=1: x[8] - w[8,11] + x[11] <= 1
 (i)w_8,12<=x_8: - x[8] + w[8,12] <= 0
 (j)w_8,12<=x_12: w[8,12] - x[12] <= 0
 -w_8,12+x_8,12+x_8,12<=1: x[8] - w[8,12] + x[12] <= 1
 (i)w_8,13<=x_8: - x[8] + w[8,13] <= 0
 (j)w_8,13<=x_13: w[8,13] - x[13] <= 0
 -w_8,13+x_8,13+x_8,13<=1: x[8] - w[8,13] + x[13] <= 1
 (i)w_8,14<=x_8: - x[8] + w[8,14] <= 0
 (j)w_8,14<=x_14: w[8,14] - x[14] <= 0
 -w_8,14+x_8,14+x_8,14<=1: x[8] - w[8,14] + x[14] <= 1
 (i)w_8,15<=x_8: - x[8] + w[8,15] <= 0
 (j)w_8,15<=x_15: w[8,15] - x[15] <= 0
 -w_8,15+x_8,15+x_8,15<=1: x[8] - w[8,15] + x[15] <= 1
 (i)w_8,16<=x_8: - x[8] + w[8,16] <= 0
 (j)w_8,16<=x_16: w[8,16] - x[16] <= 0
 -w_8,16+x_8,16+x_8,16<=1: x[8] - w[8,16] + x[16] <= 1
 (i)w_8,17<=x_8: - x[8] + w[8,17] <= 0
 (j)w_8,17<=x_17: w[8,17] - x[17] <= 0
 -w_8,17+x_8,17+x_8,17<=1: x[8] - w[8,17] + x[17] <= 1
 (i)w_8,18<=x_8: - x[8] + w[8,18] <= 0
 (j)w_8,18<=x_18: w[8,18] - x[18] <= 0
 -w_8,18+x_8,18+x_8,18<=1: x[8] - w[8,18] + x[18] <= 1
 (i)w_8,19<=x_8: - x[8] + w[8,19] <= 0
 (j)w_8,19<=x_19: w[8,19] - x[19] <= 0
 -w_8,19+x_8,19+x_8,19<=1: x[8] - w[8,19] + x[19] <= 1
 (i)w_9,9<=x_9: - x[9] + w[9,9] <= 0
 (j)w_9,9<=x_9: - x[9] + w[9,9] <= 0
 -w_9,9+x_9,9+x_9,9<=1: 2 x[9] - w[9,9] <= 1
 (i)w_9,10<=x_9: - x[9] + w[9,10] <= 0
 (j)w_9,10<=x_10: w[9,10] - x[10] <= 0
 -w_9,10+x_9,10+x_9,10<=1: x[9] - w[9,10] + x[10] <= 1
 (i)w_9,11<=x_9: - x[9] + w[9,11] <= 0
 (j)w_9,11<=x_11: w[9,11] - x[11] <= 0
 -w_9,11+x_9,11+x_9,11<=1: x[9] - w[9,11] + x[11] <= 1
 (i)w_9,12<=x_9: - x[9] + w[9,12] <= 0
 (j)w_9,12<=x_12: w[9,12] - x[12] <= 0
 -w_9,12+x_9,12+x_9,12<=1: x[9] - w[9,12] + x[12] <= 1
 (i)w_9,13<=x_9: - x[9] + w[9,13] <= 0
 (j)w_9,13<=x_13: w[9,13] - x[13] <= 0
 -w_9,13+x_9,13+x_9,13<=1: x[9] - w[9,13] + x[13] <= 1
 (i)w_9,14<=x_9: - x[9] + w[9,14] <= 0
 (j)w_9,14<=x_14: w[9,14] - x[14] <= 0
 -w_9,14+x_9,14+x_9,14<=1: x[9] - w[9,14] + x[14] <= 1
 (i)w_9,15<=x_9: - x[9] + w[9,15] <= 0
 (j)w_9,15<=x_15: w[9,15] - x[15] <= 0
 -w_9,15+x_9,15+x_9,15<=1: x[9] - w[9,15] + x[15] <= 1
 (i)w_9,16<=x_9: - x[9] + w[9,16] <= 0
 (j)w_9,16<=x_16: w[9,16] - x[16] <= 0
 -w_9,16+x_9,16+x_9,16<=1: x[9] - w[9,16] + x[16] <= 1
 (i)w_9,17<=x_9: - x[9] + w[9,17] <= 0
 (j)w_9,17<=x_17: w[9,17] - x[17] <= 0
 -w_9,17+x_9,17+x_9,17<=1: x[9] - w[9,17] + x[17] <= 1
 (i)w_9,18<=x_9: - x[9] + w[9,18] <= 0
 (j)w_9,18<=x_18: w[9,18] - x[18] <= 0
 -w_9,18+x_9,18+x_9,18<=1: x[9] - w[9,18] + x[18] <= 1
 (i)w_9,19<=x_9: - x[9] + w[9,19] <= 0
 (j)w_9,19<=x_19: w[9,19] - x[19] <= 0
 -w_9,19+x_9,19+x_9,19<=1: x[9] - w[9,19] + x[19] <= 1
 (i)w_10,10<=x_10: - x[10] + w[10,10] <= 0
 (j)w_10,10<=x_10: - x[10] + w[10,10] <= 0
 -w_10,10+x_10,10+x_10,10<=1: 2 x[10] - w[10,10] <= 1
 (i)w_10,11<=x_10: - x[10] + w[10,11] <= 0
 (j)w_10,11<=x_11: w[10,11] - x[11] <= 0
 -w_10,11+x_10,11+x_10,11<=1: x[10] - w[10,11] + x[11] <= 1
 (i)w_10,12<=x_10: - x[10] + w[10,12] <= 0
 (j)w_10,12<=x_12: w[10,12] - x[12] <= 0
 -w_10,12+x_10,12+x_10,12<=1: x[10] - w[10,12] + x[12] <= 1
 (i)w_10,13<=x_10: - x[10] + w[10,13] <= 0
 (j)w_10,13<=x_13: w[10,13] - x[13] <= 0
 -w_10,13+x_10,13+x_10,13<=1: x[10] - w[10,13] + x[13] <= 1
 (i)w_10,14<=x_10: - x[10] + w[10,14] <= 0
 (j)w_10,14<=x_14: w[10,14] - x[14] <= 0
 -w_10,14+x_10,14+x_10,14<=1: x[10] - w[10,14] + x[14] <= 1
 (i)w_10,15<=x_10: - x[10] + w[10,15] <= 0
 (j)w_10,15<=x_15: w[10,15] - x[15] <= 0
 -w_10,15+x_10,15+x_10,15<=1: x[10] - w[10,15] + x[15] <= 1
 (i)w_10,16<=x_10: - x[10] + w[10,16] <= 0
 (j)w_10,16<=x_16: w[10,16] - x[16] <= 0
 -w_10,16+x_10,16+x_10,16<=1: x[10] - w[10,16] + x[16] <= 1
 (i)w_10,17<=x_10: - x[10] + w[10,17] <= 0
 (j)w_10,17<=x_17: w[10,17] - x[17] <= 0
 -w_10,17+x_10,17+x_10,17<=1: x[10] - w[10,17] + x[17] <= 1
 (i)w_10,18<=x_10: - x[10] + w[10,18] <= 0
 (j)w_10,18<=x_18: w[10,18] - x[18] <= 0
 -w_10,18+x_10,18+x_10,18<=1: x[10] - w[10,18] + x[18] <= 1
 (i)w_10,19<=x_10: - x[10] + w[10,19] <= 0
 (j)w_10,19<=x_19: w[10,19] - x[19] <= 0
 -w_10,19+x_10,19+x_10,19<=1: x[10] - w[10,19] + x[19] <= 1
 (i)w_11,11<=x_11: - x[11] + w[11,11] <= 0
 (j)w_11,11<=x_11: - x[11] + w[11,11] <= 0
 -w_11,11+x_11,11+x_11,11<=1: 2 x[11] - w[11,11] <= 1
 (i)w_11,12<=x_11: - x[11] + w[11,12] <= 0
 (j)w_11,12<=x_12: w[11,12] - x[12] <= 0
 -w_11,12+x_11,12+x_11,12<=1: x[11] - w[11,12] + x[12] <= 1
 (i)w_11,13<=x_11: - x[11] + w[11,13] <= 0
 (j)w_11,13<=x_13: w[11,13] - x[13] <= 0
 -w_11,13+x_11,13+x_11,13<=1: x[11] - w[11,13] + x[13] <= 1
 (i)w_11,14<=x_11: - x[11] + w[11,14] <= 0
 (j)w_11,14<=x_14: w[11,14] - x[14] <= 0
 -w_11,14+x_11,14+x_11,14<=1: x[11] - w[11,14] + x[14] <= 1
 (i)w_11,15<=x_11: - x[11] + w[11,15] <= 0
 (j)w_11,15<=x_15: w[11,15] - x[15] <= 0
 -w_11,15+x_11,15+x_11,15<=1: x[11] - w[11,15] + x[15] <= 1
 (i)w_11,16<=x_11: - x[11] + w[11,16] <= 0
 (j)w_11,16<=x_16: w[11,16] - x[16] <= 0
 -w_11,16+x_11,16+x_11,16<=1: x[11] - w[11,16] + x[16] <= 1
 (i)w_11,17<=x_11: - x[11] + w[11,17] <= 0
 (j)w_11,17<=x_17: w[11,17] - x[17] <= 0
 -w_11,17+x_11,17+x_11,17<=1: x[11] - w[11,17] + x[17] <= 1
 (i)w_11,18<=x_11: - x[11] + w[11,18] <= 0
 (j)w_11,18<=x_18: w[11,18] - x[18] <= 0
 -w_11,18+x_11,18+x_11,18<=1: x[11] - w[11,18] + x[18] <= 1
 (i)w_11,19<=x_11: - x[11] + w[11,19] <= 0
 (j)w_11,19<=x_19: w[11,19] - x[19] <= 0
 -w_11,19+x_11,19+x_11,19<=1: x[11] - w[11,19] + x[19] <= 1
 (i)w_12,12<=x_12: - x[12] + w[12,12] <= 0
 (j)w_12,12<=x_12: - x[12] + w[12,12] <= 0
 -w_12,12+x_12,12+x_12,12<=1: 2 x[12] - w[12,12] <= 1
 (i)w_12,13<=x_12: - x[12] + w[12,13] <= 0
 (j)w_12,13<=x_13: w[12,13] - x[13] <= 0
 -w_12,13+x_12,13+x_12,13<=1: x[12] - w[12,13] + x[13] <= 1
 (i)w_12,14<=x_12: - x[12] + w[12,14] <= 0
 (j)w_12,14<=x_14: w[12,14] - x[14] <= 0
 -w_12,14+x_12,14+x_12,14<=1: x[12] - w[12,14] + x[14] <= 1
 (i)w_12,15<=x_12: - x[12] + w[12,15] <= 0
 (j)w_12,15<=x_15: w[12,15] - x[15] <= 0
 -w_12,15+x_12,15+x_12,15<=1: x[12] - w[12,15] + x[15] <= 1
 (i)w_12,16<=x_12: - x[12] + w[12,16] <= 0
 (j)w_12,16<=x_16: w[12,16] - x[16] <= 0
 -w_12,16+x_12,16+x_12,16<=1: x[12] - w[12,16] + x[16] <= 1
 (i)w_12,17<=x_12: - x[12] + w[12,17] <= 0
 (j)w_12,17<=x_17: w[12,17] - x[17] <= 0
 -w_12,17+x_12,17+x_12,17<=1: x[12] - w[12,17] + x[17] <= 1
 (i)w_12,18<=x_12: - x[12] + w[12,18] <= 0
 (j)w_12,18<=x_18: w[12,18] - x[18] <= 0
 -w_12,18+x_12,18+x_12,18<=1: x[12] - w[12,18] + x[18] <= 1
 (i)w_12,19<=x_12: - x[12] + w[12,19] <= 0
 (j)w_12,19<=x_19: w[12,19] - x[19] <= 0
 -w_12,19+x_12,19+x_12,19<=1: x[12] - w[12,19] + x[19] <= 1
 (i)w_13,13<=x_13: - x[13] + w[13,13] <= 0
 (j)w_13,13<=x_13: - x[13] + w[13,13] <= 0
 -w_13,13+x_13,13+x_13,13<=1: 2 x[13] - w[13,13] <= 1
 (i)w_13,14<=x_13: - x[13] + w[13,14] <= 0
 (j)w_13,14<=x_14: w[13,14] - x[14] <= 0
 -w_13,14+x_13,14+x_13,14<=1: x[13] - w[13,14] + x[14] <= 1
 (i)w_13,15<=x_13: - x[13] + w[13,15] <= 0
 (j)w_13,15<=x_15: w[13,15] - x[15] <= 0
 -w_13,15+x_13,15+x_13,15<=1: x[13] - w[13,15] + x[15] <= 1
 (i)w_13,16<=x_13: - x[13] + w[13,16] <= 0
 (j)w_13,16<=x_16: w[13,16] - x[16] <= 0
 -w_13,16+x_13,16+x_13,16<=1: x[13] - w[13,16] + x[16] <= 1
 (i)w_13,17<=x_13: - x[13] + w[13,17] <= 0
 (j)w_13,17<=x_17: w[13,17] - x[17] <= 0
 -w_13,17+x_13,17+x_13,17<=1: x[13] - w[13,17] + x[17] <= 1
 (i)w_13,18<=x_13: - x[13] + w[13,18] <= 0
 (j)w_13,18<=x_18: w[13,18] - x[18] <= 0
 -w_13,18+x_13,18+x_13,18<=1: x[13] - w[13,18] + x[18] <= 1
 (i)w_13,19<=x_13: - x[13] + w[13,19] <= 0
 (j)w_13,19<=x_19: w[13,19] - x[19] <= 0
 -w_13,19+x_13,19+x_13,19<=1: x[13] - w[13,19] + x[19] <= 1
 (i)w_14,14<=x_14: - x[14] + w[14,14] <= 0
 (j)w_14,14<=x_14: - x[14] + w[14,14] <= 0
 -w_14,14+x_14,14+x_14,14<=1: 2 x[14] - w[14,14] <= 1
 (i)w_14,15<=x_14: - x[14] + w[14,15] <= 0
 (j)w_14,15<=x_15: w[14,15] - x[15] <= 0
 -w_14,15+x_14,15+x_14,15<=1: x[14] - w[14,15] + x[15] <= 1
 (i)w_14,16<=x_14: - x[14] + w[14,16] <= 0
 (j)w_14,16<=x_16: w[14,16] - x[16] <= 0
 -w_14,16+x_14,16+x_14,16<=1: x[14] - w[14,16] + x[16] <= 1
 (i)w_14,17<=x_14: - x[14] + w[14,17] <= 0
 (j)w_14,17<=x_17: w[14,17] - x[17] <= 0
 -w_14,17+x_14,17+x_14,17<=1: x[14] - w[14,17] + x[17] <= 1
 (i)w_14,18<=x_14: - x[14] + w[14,18] <= 0
 (j)w_14,18<=x_18: w[14,18] - x[18] <= 0
 -w_14,18+x_14,18+x_14,18<=1: x[14] - w[14,18] + x[18] <= 1
 (i)w_14,19<=x_14: - x[14] + w[14,19] <= 0
 (j)w_14,19<=x_19: w[14,19] - x[19] <= 0
 -w_14,19+x_14,19+x_14,19<=1: x[14] - w[14,19] + x[19] <= 1
 (i)w_15,15<=x_15: - x[15] + w[15,15] <= 0
 (j)w_15,15<=x_15: - x[15] + w[15,15] <= 0
 -w_15,15+x_15,15+x_15,15<=1: 2 x[15] - w[15,15] <= 1
 (i)w_15,16<=x_15: - x[15] + w[15,16] <= 0
 (j)w_15,16<=x_16: w[15,16] - x[16] <= 0
 -w_15,16+x_15,16+x_15,16<=1: x[15] - w[15,16] + x[16] <= 1
 (i)w_15,17<=x_15: - x[15] + w[15,17] <= 0
 (j)w_15,17<=x_17: w[15,17] - x[17] <= 0
 -w_15,17+x_15,17+x_15,17<=1: x[15] - w[15,17] + x[17] <= 1
 (i)w_15,18<=x_15: - x[15] + w[15,18] <= 0
 (j)w_15,18<=x_18: w[15,18] - x[18] <= 0
 -w_15,18+x_15,18+x_15,18<=1: x[15] - w[15,18] + x[18] <= 1
 (i)w_15,19<=x_15: - x[15] + w[15,19] <= 0
 (j)w_15,19<=x_19: w[15,19] - x[19] <= 0
 -w_15,19+x_15,19+x_15,19<=1: x[15] - w[15,19] + x[19] <= 1
 (i)w_16,16<=x_16: - x[16] + w[16,16] <= 0
 (j)w_16,16<=x_16: - x[16] + w[16,16] <= 0
 -w_16,16+x_16,16+x_16,16<=1: 2 x[16] - w[16,16] <= 1
 (i)w_16,17<=x_16: - x[16] + w[16,17] <= 0
 (j)w_16,17<=x_17: w[16,17] - x[17] <= 0
 -w_16,17+x_16,17+x_16,17<=1: x[16] - w[16,17] + x[17] <= 1
 (i)w_16,18<=x_16: - x[16] + w[16,18] <= 0
 (j)w_16,18<=x_18: w[16,18] - x[18] <= 0
 -w_16,18+x_16,18+x_16,18<=1: x[16] - w[16,18] + x[18] <= 1
 (i)w_16,19<=x_16: - x[16] + w[16,19] <= 0
 (j)w_16,19<=x_19: w[16,19] - x[19] <= 0
 -w_16,19+x_16,19+x_16,19<=1: x[16] - w[16,19] + x[19] <= 1
 (i)w_17,17<=x_17: - x[17] + w[17,17] <= 0
 (j)w_17,17<=x_17: - x[17] + w[17,17] <= 0
 -w_17,17+x_17,17+x_17,17<=1: 2 x[17] - w[17,17] <= 1
 (i)w_17,18<=x_17: - x[17] + w[17,18] <= 0
 (j)w_17,18<=x_18: w[17,18] - x[18] <= 0
 -w_17,18+x_17,18+x_17,18<=1: x[17] - w[17,18] + x[18] <= 1
 (i)w_17,19<=x_17: - x[17] + w[17,19] <= 0
 (j)w_17,19<=x_19: w[17,19] - x[19] <= 0
 -w_17,19+x_17,19+x_17,19<=1: x[17] - w[17,19] + x[19] <= 1
 (i)w_18,18<=x_18: - x[18] + w[18,18] <= 0
 (j)w_18,18<=x_18: - x[18] + w[18,18] <= 0
 -w_18,18+x_18,18+x_18,18<=1: 2 x[18] - w[18,18] <= 1
 (i)w_18,19<=x_18: - x[18] + w[18,19] <= 0
 (j)w_18,19<=x_19: w[18,19] - x[19] <= 0
 -w_18,19+x_18,19+x_18,19<=1: x[18] - w[18,19] + x[19] <= 1
 (i)w_19,19<=x_19: - x[19] + w[19,19] <= 0
 (j)w_19,19<=x_19: - x[19] + w[19,19] <= 0
 -w_19,19+x_19,19+x_19,19<=1: 2 x[19] - w[19,19] <= 1
Bounds
Binaries
 x[0] w[0,0] w[0,1] w[0,2] w[0,3] w[0,4] w[0,5] w[0,6] w[0,7] w[0,8] w[0,9]
 w[0,10] w[0,11] w[0,12] w[0,13] w[0,14] w[0,15] w[0,16] w[0,17] w[0,18]
 w[0,19] x[1] w[1,0] w[1,1] w[1,2] w[1,3] w[1,4] w[1,5] w[1,6] w[1,7]
 w[1,8] w[1,9] w[1,10] w[1,11] w[1,12] w[1,13] w[1,14] w[1,15] w[1,16]
 w[1,17] w[1,18] w[1,19] x[2] w[2,0] w[2,1] w[2,2] w[2,3] w[2,4] w[2,5]
 w[2,6] w[2,7] w[2,8] w[2,9] w[2,10] w[2,11] w[2,12] w[2,13] w[2,14]
 w[2,15] w[2,16] w[2,17] w[2,18] w[2,19] x[3] w[3,0] w[3,1] w[3,2] w[3,3]
 w[3,4] w[3,5] w[3,6] w[3,7] w[3,8] w[3,9] w[3,10] w[3,11] w[3,12] w[3,13]
 w[3,14] w[3,15] w[3,16] w[3,17] w[3,18] w[3,19] x[4] w[4,0] w[4,1] w[4,2]
 w[4,3] w[4,4] w[4,5] w[4,6] w[4,7] w[4,8] w[4,9] w[4,10] w[4,11] w[4,12]
 w[4,13] w[4,14] w[4,15] w[4,16] w[4,17] w[4,18] w[4,19] x[5] w[5,0] w[5,1]
 w[5,2] w[5,3] w[5,4] w[5,5] w[5,6] w[5,7] w[5,8] w[5,9] w[5,10] w[5,11]
 w[5,12] w[5,13] w[5,14] w[5,15] w[5,16] w[5,17] w[5,18] w[5,19] x[6]
 w[6,0] w[6,1] w[6,2] w[6,3] w[6,4] w[6,5] w[6,6] w[6,7] w[6,8] w[6,9]
 w[6,10] w[6,11] w[6,12] w[6,13] w[6,14] w[6,15] w[6,16] w[6,17] w[6,18]
 w[6,19] x[7] w[7,0] w[7,1] w[7,2] w[7,3] w[7,4] w[7,5] w[7,6] w[7,7]
 w[7,8] w[7,9] w[7,10] w[7,11] w[7,12] w[7,13] w[7,14] w[7,15] w[7,16]
 w[7,17] w[7,18] w[7,19] x[8] w[8,0] w[8,1] w[8,2] w[8,3] w[8,4] w[8,5]
 w[8,6] w[8,7] w[8,8] w[8,9] w[8,10] w[8,11] w[8,12] w[8,13] w[8,14]
 w[8,15] w[8,16] w[8,17] w[8,18] w[8,19] x[9] w[9,0] w[9,1] w[9,2] w[9,3]
 w[9,4] w[9,5] w[9,6] w[9,7] w[9,8] w[9,9] w[9,10] w[9,11] w[9,12] w[9,13]
 w[9,14] w[9,15] w[9,16] w[9,17] w[9,18] w[9,19] x[10] w[10,0] w[10,1]
 w[10,2] w[10,3] w[10,4] w[10,5] w[10,6] w[10,7] w[10,8] w[10,9] w[10,10]
 w[10,11] w[10,12] w[10,13] w[10,14] w[10,15] w[10,16] w[10,17] w[10,18]
 w[10,19] x[11] w[11,0] w[11,1] w[11,2] w[11,3] w[11,4] w[11,5] w[11,6]
 w[11,7] w[11,8] w[11,9] w[11,10] w[11,11] w[11,12] w[11,13] w[11,14]
 w[11,15] w[11,16] w[11,17] w[11,18] w[11,19] x[12] w[12,0] w[12,1] w[12,2]
 w[12,3] w[12,4] w[12,5] w[12,6] w[12,7] w[12,8] w[12,9] w[12,10] w[12,11]
 w[12,12] w[12,13] w[12,14] w[12,15] w[12,16] w[12,17] w[12,18] w[12,19]
 x[13] w[13,0] w[13,1] w[13,2] w[13,3] w[13,4] w[13,5] w[13,6] w[13,7]
 w[13,8] w[13,9] w[13,10] w[13,11] w[13,12] w[13,13] w[13,14] w[13,15]
 w[13,16] w[13,17] w[13,18] w[13,19] x[14] w[14,0] w[14,1] w[14,2] w[14,3]
 w[14,4] w[14,5] w[14,6] w[14,7] w[14,8] w[14,9] w[14,10] w[14,11] w[14,12]
 w[14,13] w[14,14] w[14,15] w[14,16] w[14,17] w[14,18] w[14,19] x[15]
 w[15,0] w[15,1] w[15,2] w[15,3] w[15,4] w[15,5] w[15,6] w[15,7] w[15,8]
 w[15,9] w[15,10] w[15,11] w[15,12] w[15,13] w[15,14] w[15,15] w[15,16]
 w[15,17] w[15,18] w[15,19] x[16] w[16,0] w[16,1] w[16,2] w[16,3] w[16,4]
 w[16,5] w[16,6] w[16,7] w[16,8] w[16,9] w[16,10] w[16,11] w[16,12]
 w[16,13] w[16,14] w[16,15] w[16,16] w[16,17] w[16,18] w[16,19] x[17]
 w[17,0] w[17,1] w[17,2] w[17,3] w[17,4] w[17,5] w[17,6] w[17,7] w[17,8]
 w[17,9] w[17,10] w[17,11] w[17,12] w[17,13] w[17,14] w[17,15] w[17,16]
 w[17,17] w[17,18] w[17,19] x[18] w[18,0] w[18,1] w[18,2] w[18,3] w[18,4]
 w[18,5] w[18,6] w[18,7] w[18,8] w[18,9] w[18,10] w[18,11] w[18,12]
 w[18,13] w[18,14] w[18,15] w[18,16] w[18,17] w[18,18] w[18,19] x[19]
 w[19,0] w[19,1] w[19,2] w[19,3] w[19,4] w[19,5] w[19,6] w[19,7] w[19,8]
 w[19,9] w[19,10] w[19,11] w[19,12] w[19,13] w[19,14] w[19,15] w[19,16]
 w[19,17] w[19,18] w[19,19]
End
