MO824-Atividade-6/model2-lin-mist_qbf020.log

Gurobi 7.0.2 (linux64, Java) logging started Mon 20 May 2019 10:32:41 PM -03

Optimize a model with 650 rows, 420 columns and 1510 nonzeros
Variable types: 0 continuous, 420 integer (420 binary)
Coefficient statistics:
  Matrix range     [1e+00, 2e+00]
  Objective range  [1e+00, 1e+01]
  Bounds range     [1e+00, 1e+00]
  RHS range        [1e+00, 2e+00]
Found heuristic solution: objective -0
Presolve removed 60 rows and 210 columns
Presolve time: 0.03s
Presolved: 590 rows, 210 columns, 1390 nonzeros
Variable types: 0 continuous, 210 integer (210 binary)

Root relaxation: objective 2.485000e+02, 197 iterations, 0.03 seconds

    Nodes    |    Current Node    |     Objective Bounds      |     Work
 Expl Unexpl |  Obj  Depth IntInf | Incumbent    BestBd   Gap | It/Node Time

     0     0  248.50000    0  111   -0.00000  248.50000      -     -    0s
H    0     0                      46.0000000  248.50000   440%     -    0s
H    0     0                      74.0000000  248.50000   236%     -    0s
H    0     0                     112.0000000  248.50000   122%     -    0s
     0     0  224.00000    0  104  112.00000  224.00000   100%     -    0s
     0     0  206.50000    0   93  112.00000  206.50000  84.4%     -    0s
H    0     0                     120.0000000  206.50000  72.1%     -    0s
     0     0  191.00000    0   99  120.00000  191.00000  59.2%     -    0s
     0     0  170.50000    0  155  120.00000  170.50000  42.1%     -    0s
     0     0  158.25000    0  155  120.00000  158.25000  31.9%     -    0s
     0     0  157.50000    0  156  120.00000  157.50000  31.2%     -    0s
H    0     0                     125.0000000  157.50000  26.0%     -    0s
     0     0  151.00000    0  101  125.00000  151.00000  20.8%     -    0s
     0     0  150.50000    0  149  125.00000  150.50000  20.4%     -    0s
     0     0  148.66250    0  171  125.00000  148.66250  18.9%     -    0s
     0     0  148.66250    0  169  125.00000  148.66250  18.9%     -    0s
     0     2  148.66250    0  169  125.00000  148.66250  18.9%     -    0s

Cutting planes:
  Gomory: 1
  Zero half: 111

Explored 15 nodes (1344 simplex iterations) in 0.87 seconds
Thread count was 4 (of 4 available processors)

Solution count 6: 125 120 112 ... -0
Pool objective bound 125

Optimal solution found (tolerance 1.00e-04)
Best objective 1.250000000000e+02, best bound 1.250000000000e+02, gap 0.0000%
